NAME : cgl_48.9275.tour
COMMENT : Length = 9275
COMMENT : Found by LKH-3 [Keld Helsgaun] Fri Nov  8 17:38:19 2024
TYPE : TOUR
DIMENSION : 49
TOUR_SECTION
26
27
29
28
30
34
33
32
31
35
6
4
5
7
9
12
17
14
16
15
18
20
19
21
22
23
24
13
8
10
11
3
2
1
36
37
38
39
40
41
42
44
43
46
45
47
48
49
25
-1
EOF
